n_res = 4;
rcap = [5, 18, 44, 56];
rtype = [1, 1, 2, 2];
n_tasks = 16;
modes = [ {1}, {2}, {3}, {4}, {5}, {6}, {7}, {8}, {9}, {10}, {11}, {12}, {13}, {14}, {15}, {16} ];
succ = [ {11, 12}, {4, 7, 9}, {6, 8, 12}, {5, 8, 12}, {6, 13}, {10, 14}, {8}, {16}, {11, 14, 15}, {11, 15}, {16}, {13, 15}, {14, 16}, {}, {}, {} ];
n_opt = 16;
dur = [2, 7, 2, 7, 10, 9, 8, 4, 1, 6, 9, 3, 2, 8, 2, 1];
rreq = [|  0,  3,  0,  0,  0,  0,  0,  5,  0,  0,  2,  0,  0,  0,  0,  3
        |  6,  0,  7,  1,  6,  8,  5,  0,  2,  7,  0,  7, 10,  5,  2,  0
        |  4,  9,  0,  0,  5,  0,  0,  5,  6,  9,  0,  0,  0,  6,  0,  0
        |  0,  0,  3,  4,  0, 10,  6,  0,  0,  0,  6,  4,  9,  0,  8,  6 |];
